%%%mzn-stat: initTime=0.099901289
%%%mzn-stat: objective=313
%%%mzn-stat: nodes=387
%%%mzn-stat: restarts=0
%%%mzn-stat: peakDepth=74
%%%mzn-stat: solveTime=0.034559768
%%%mzn-stat: variables=504
%%%mzn-stat: propagators=354
%%%mzn-stat: failures=313
%%%mzn-stat: propagations=85976
%%%mzn-stat: nogoods=313
%%%mzn-stat: AverageConflictSize=2
%%%mzn-stat: NumUnitNogoodsLearned=312
%%%mzn-stat: AverageLearnedNogoodLength=1.0670926517571886
%%%mzn-stat: AverageBacktrackAmount=0
%%%mzn-stat: AverageLbd=1.0031948881789137
%%%mzn-stat-end
maxleg = 313;
succ = array1d(1..20,[16, 5, 18, 2, 19, 7, 20, 11, 3, 6, 17, 15, 14, 12, 4, 9, 10, 8, 1, 13]);
% time elapsed: 5.79 s
----------
==========
% time elapsed: 5.79 s
%%%mzn-stat: initTime=0.099901289
%%%mzn-stat: objective=313
%%%mzn-stat: nodes=387
%%%mzn-stat: restarts=0
%%%mzn-stat: peakDepth=74
%%%mzn-stat: solveTime=0.034569403
%%%mzn-stat: variables=504
%%%mzn-stat: propagators=354
%%%mzn-stat: failures=313
%%%mzn-stat: propagations=85976
%%%mzn-stat: nogoods=313
%%%mzn-stat: AverageConflictSize=2
%%%mzn-stat: NumUnitNogoodsLearned=312
%%%mzn-stat: AverageLearnedNogoodLength=1.0670926517571886
%%%mzn-stat: AverageBacktrackAmount=0
%%%mzn-stat: AverageLbd=1.0031948881789137
%%%mzn-stat-end
